(set-logic BV) (define-fun origCir ((n98 Bool) (n65 Bool) (n136 Bool) (n148 Bool) (n158 Bool)) Bool (and (and (not (or n136 n148)) (and n65 n98)) n158)) (synth-fun skel ((n98 Bool) (n65 Bool) (n136 Bool) (n148 Bool) (n158 Bool)) Bool) (declare-var n98 Bool) (declare-var n65 Bool) (declare-var n136 Bool) (declare-var n148 Bool) (declare-var n158 Bool) (constraint (= (origCir n98 n65 n136 n148 n158) (skel n98 n65 n136 n148 n158))) (check-synth)
